(declare-sort $$unsorted 0)
(declare-fun tptp.op ($$unsorted $$unsorted) $$unsorted)
(assert (forall ((X0 $$unsorted) (X1 $$unsorted) (X2 $$unsorted)) (= (tptp.op X0 X0) (tptp.op X1 (tptp.op (tptp.op X2 X2) X2)))))
(assert (not (forall ((X0 $$unsorted) (X1 $$unsorted) (X2 $$unsorted)) (= (tptp.op X0 X0) (tptp.op X1 (tptp.op (tptp.op X1 X1) X2))))))
(set-info :filename Equation3501_implies_Equation3486)
(check-sat-assuming ( true ))
